NAME : netgen22-5-8
COMMENT : Generated using the function generateClusteredNetwork from the R-package netgen (Bossek,2015) - Number of clusters: 5
TYPE : TSP
DIMENSION : 22
EDGE_WEIGHT_TYPE : EUC_2D
NODE_COORD_SECTION
1 66.8370395074 9.7972959279
2 82.1367471146 16.193442407
3 68.9331606919 19.2127130677
4 68.4788614784 6.6302145984
5 17.7926385275 82.7978986532
6 22.2370215144 87.5470441266
7 22.3825259891 96.187177391
8 38.9031544626 92.5274479804
9 15.9066186348 84.7666931844
10 21.7933715386 90.5081701502
11 96.3777623516 58.3730537243
12 96.9073563393 64.2286100754
13 96.4939709982 62.6026844262
14 89.16776664 52.6749069699
15 16.1464379517 67.1067411225
16 20.6645062773 60.1351619591
17 19.1543052753 62.5077037188
18 13.9034600714 63.1758979617
19 46.0591748224 34.8244386149
20 47.2427372079 39.4348762809
21 39.6508847519 33.2915495845
22 49.6340768922 41.923482739
EOF
